TERM = { '.', 'in_1', 'local_0', 'in_2', 'in_3', 'in_4', 's(1)', 's(0)', 'in_0'};
null = '.';
s = 5;
n = 10;
ndeps = 3;
max_registers_sz = 4;
NR = 1;
registers = [|'local_0', 'in_2'|];
dependencies = [|'i32.load16_s_0', 'i32.store8_2', |'i32.store8_2', 'i32.store_4', |'i32.load8_s_1', 'i32.store8_2'|];
GET_ENUM = { GET1, GET2, GET3, GET4, GET5};
SET_ENUM = { SET1, SET2, SET3, SET4, SET5};
TEE_ENUM = { TEE1, TEE2, TEE3, TEE4, TEE5};
N = 4;
OP = { 'i32.load16_s_0', 'i32.load8_s_1', 'i32.store8_2', 'i32.store_4' };
in_ops = [1, 1, 2, 2 ];
out_ops = [1, 1, 0, 0 ];
in1 = ['in_0', 's(0)', 's(1)', 'in_3' ];
in2 = ['.', '.', 'in_1', 'in_4' ];
in3 = ['.', '.', '.', '.' ];
out1 = ['s(0)', 's(1)', '.', '.' ];
out2 = ['.', '.', '.', '.' ];
out3 = ['.', '.', '.', '.' ];
comm = [false, false, false, false ];
gas = [1, 1, 1, 1 ];
sz = [1, 1, 1, 1 ];
stor = [false, false, true, true ];
lb = [ 1, 1, 1, 1 ];
ub = [ 5, 5, 5, 5 ];
startstack = [ 'in_0', 'in_1', 'in_2', 'in_3', 'in_4', null, null, null, null, null ];
endstack = [ null, null, null, null, null, null, null, null, null, null ];
